128
1000000
139307
58701
102138
143999
87695
22
24226
8249
120821
127341
138625
25106
80955
240402
71729
248510
249953
47075
72051
21171
206676
85067
39835
133223
218336
182945
231898
76959
5118
118063
3383
27227
4682
35155
107861
215292
2904
90898
148087
200132
172730
108952
11288
64155
63706
41677
206616
166453
76450
51541
24618
63337
65609
56391
125563
119686
70406
202004
82775
166552
126945
179357
106352
153880
237317
215110
202810
73910
79218
237797
63763
202014
213266
108436
207895
48278
178396
127243
137731
94755
77915
43637
199887
111729
95661
87923
36773
35472
118066
199529
323
221746
180251
239757
137680
152645
149256
240623
185551
129373
215453
140695
199055
92386
12998
95074
218555
147020
11975
5994
108675
224
26498
80129
57805
169803
54394
141286
217650
116878
130528
96045
193574
143253
206806
142336
231245
23070
